WARNING: for repeatability, setting FPU to use double precision
============================[ Problem Statistics ]=============================
|                                                                             |
|  Number of symmetries:          35                                          |
|  Number of invertingSyms:        0                                          |
|  Number of variables:           342                                         |
|  Number of clauses:            3097                                         |
|  Parse time:                   0.00 s                                       |
|                                                                             |
============================[ Search Statistics ]==============================
| Conflicts |          ORIGINAL         |          LEARNT          | Progress |
|           |    Vars  Clauses Literals |    Limit  Clauses Lit/Cl |          |
===============================================================================
|       100 |     342     3097     6498 |     1135      106    117 |  0.001 % |
|       250 |     342     3097     6498 |     1249      330     84 |  0.001 % |
|       475 |     342     3097     6498 |     1374      660     82 |  0.001 % |
|       812 |     342     3097     6498 |     1511     1108     87 |  0.001 % |
|      1318 |     342     3097     6498 |     1662     1087     78 |  0.001 % |
|      2077 |     342     3097     6498 |     1828     1397     76 |  0.001 % |
|      3216 |     342     3097     6498 |     2011     1868     79 |  0.001 % |
|      4924 |     342     3097     6498 |     2212     1225     87 |  0.001 % |
|      7486 |     342     3097     6498 |     2434     2342     86 |  0.001 % |
|     11330 |     342     3097     6498 |     2677     1849    132 |  0.001 % |
|     17096 |     342     3097     6498 |     2945     2342    138 |  0.001 % |
|     25745 |     342     3097     6498 |     3239     1773    137 |  0.001 % |
|     38719 |     342     3097     6498 |     3563     3050    166 |  0.001 % |
|     58180 |     342     3097     6498 |     3920     3418    141 |  0.001 % |
|     87372 |     342     3097     6498 |     4312     3564    137 |  0.001 % |
|    131161 |     342     3097     6498 |     4743     4248    144 |  0.001 % |
|    196845 |     342     3097     6498 |     5217     4630    120 |  0.001 % |
|    295371 |     342     3097     6498 |     5739     4128    125 |  0.001 % |
|    443160 |     342     3097     6498 |     6313     3450    120 |  0.001 % |
|    664843 |     342     3097     6498 |     6945     4510    134 |  0.001 % |
|    997368 |     342     3097     6498 |     7639     4202    122 |  0.001 % |
|   1496156 |     342     3097     6498 |     8403     6423    137 |  0.001 % |
|   2244338 |     342     3097     6498 |     9243     5982    118 |  0.001 % |
|   3366612 |     342     3097     6498 |    10168     8531    111 |  0.001 % |
|   5050023 |     342     3097     6498 |    11185    10047    100 |  0.001 % |
|   7575139 |     342     3097     6498 |    12303     9758    128 |  0.001 % |
|  11362814 |     342     3097     6498 |    13533    10605    136 |  0.001 % |
|  17044326 |     342     3097     6498 |    14887    11642    123 |  0.001 % |
===============================================================================
restarts              : 32767
conflicts             : 23900295       (12042 /sec)
symconflicts          : 1899927        (957 /sec)
decisions             : 38060674       (0.00 % random) (19177 /sec)
propagations          : 516868038      (260430 /sec)
sympropagations       : 10999530       (5542 /sec)
conflict literals     : 3287403932     (7.22 % deleted)
Memory used           : 68.00 MB
CPU time              : 1984.67 s

UNSATISFIABLE
